c clasp version 2.1.1
c Reading from p08.cnf
c Solving...
s SATISFIABLE

c Models        : 1+    
c Time          : 0.954s (Solving: 0.71s 1st Model: 0.71s Unsat: 0.00s)
c CPU Time      : 0.940s
c Choices       : 26683
c Conflicts     : 5968
c Restarts      : 12     (Average: 497.33 Last: 299)

c Variables     : 72693  (Eliminated: 22134 Frozen:    0)
c Constraints   : 62677  (Binary: 69.7% Ternary: 27.4% Other:  2.9%)
c Lemmas        : 5968   (Binary:  0.8% Ternary:  2.1% Other: 97.1%)
c   Conflict    : 5968   (Average Length: 99.3) 
c   Loop        : 0      (Average Length: 0.0) 
c   Other       : 0      (Average Length: 0.0)
c   Deleted     : 0     
